3 
4 
5  06 21 36 51 
6  06 21 36 51 
7  06 21 36 51 
8  06 21 36 51 
9  06 21 35 50 
10  05 20 35 50 
11  05 20 35 50 
12  05 20 35 49 
13  04 19 34 49 
14  04 19 34 51 
15  06 21 36 51 
16  06 21 36 51 
17  06 21 36 51 
18  06 21 36 51 
19  06 21 36 51 
20  06 21 36 51 
21  06 21 36 51 
22  08 23 38 56 
23 
0 
